0 3839
1 3830
4 3767
6 3756
9 3696
10 3691
12 3688
13 3674
20 3646
29 3643
32 3636
51 3631
64 3630
72 3628
74 3624
77 3612
79 3558
108 3556
117 3554
123 3542
187 3530
209 3528
219 3501
221 3496
226 3495
229 3490
242 3488
275 3471
295 3434
337 3429
366 3427
370 3391
399 3385
404 3383
427 3351
434 3338
446 3335
467 3333
494 3323
525 3322
533 3299
605 3296
640 3271
675 3264
775 3263
800 3260
822 3259
845 3254
848 3252
876 3249
906 3238
941 3234
957 3216
964 3210
1042 3206
1060 3203
1065 3193
